40 114
1 4 10 11 12 20 25 33 36 37
0 8 13 15 38
19 29
27 30
0 9 10 15 19 27 30
8 9 12 34 38
9 10 14 20 21 24 32
11 22 28 32 39
1 5 9 15 16 27 30 38
4 5 6 8 12 13 16 35 37
0 4 6 15 17 39
0 7 19 20 21 23 26 34 35
0 5 9 19 24
1 9 16 32
6 16 17 22 31 33 35
1 4 8 10 17 19 31 32
8 9 13 14 22 26 28
10 14 15 20 26 30
19 26 28 35 37
2 4 11 12 15 18 37 38
0 6 11 17 25
6 11 22 34
7 14 16 21 23 38
11 22 24 31 38 39
6 12 23 27 28
0 20 28
11 16 17 18 29
3 4 8 24 29 33
7 16 18 24 25 29
2 26 27 28 38
3 4 8 17 35 38
14 15 23 32
6 7 13 15 31
0 14 27 34 37
5 11 21 33 35 38
9 11 14 18 30 34 39
0
0 9 18 19 33
1 5 8 19 22 23 29 30 34
7 10 23 35
